JOBS = 1..5;
MACHINES = 1..6;
SPEED = 1;
time = array3d(JOBS,MACHINES,1..SPEED,[30,30,85,30,82,88,61,92,71,19,47,22,21,47,28,99,15,30,23,15,60,13,17,39,89,64,12,43,84,79]);
energy = array3d(JOBS,MACHINES,1..SPEED,[74,74,42,74,44,41,54,39,49,82,62,80,81,62,75,37,86,74,79,86,54,87,84,67,41,52,88,65,43,45]);
precedence = array2d(JOBS,MACHINES,[5,1,0,2,4,3,2,5,0,4,1,3,3,0,2,5,1,4,0,4,5,2,1,3,0,5,2,3,4,1]);
ME = 1;
TE = 158;
st_old = array2d(JOBS,MACHINES,[425,156,71,186,343,255,118,278,0,259,71,197,184,0,156,278,47,219,0,92,209,40,23,53,29,370,197,216,259,118]);
SpeedScaling = array2d(JOBS,MACHINES,[1,1,1,1,1,1,1,1,1,1,1,1,1,1,1,1,1,1,1,1,1,1,1,1,1,1,1,1,1,1]);
